10
0 37 93 63 65 62 9 30 88 61 
37 0 92 31 55 53 97 84 72 55 
93 92 0 38 8 6 39 64 18 83 
63 31 38 0 18 80 27 42 41 73 
65 55 8 18 0 99 93 8 100 82 
62 53 6 80 99 0 87 59 51 84 
9 97 39 27 93 87 0 71 48 14 
30 84 64 42 8 59 71 0 91 85 
88 72 18 41 100 51 48 91 0 42 
61 55 83 73 82 84 14 85 42 0 
RBRBRBBRBR
